NAME: n20q30E.tsp, 20 nodes, semilla 444
COMMENT: Problema aleatorio de norma euclidea
DIMENSION: 20
CAPACITY: 30
EDGE_WEIGHT_TYPE: EUC_2D
NODE_COORD_SECTION
1   0.0000   0.0000
2 152.0000 -11.0000
3 -319.0000 -425.0000
4  62.0000 -493.0000
5  28.0000 -462.0000
6 115.0000  65.0000
7 390.0000 220.0000
8 319.0000 -96.0000
9  54.0000 190.0000
10 -415.0000 -149.0000
11 142.0000 -95.0000
12 -352.0000 -79.0000
13 -72.0000  67.0000
14 491.0000 -385.0000
15 -319.0000 425.0000
16  12.0000 421.0000
17 157.0000 -354.0000
18 338.0000 336.0000
19 -477.0000 243.0000
20 495.0000 361.0000
DISPLAY_DATA_SECTION:
 1  250  250
 2  326  244
 3   90   37
 4  281    3
 5  264   19
 6  307  282
 7  445  360
 8  409  202
 9  277  345
10   42  175
11  321  202
12   74  210
13  214  283
14  495   57
15   90  462
16  256  460
17  328   73
18  419  418
19   11  371
20  497  430
DEMAND_SECTION
1 -10
2 -7
3 -7
4 7
5 9
6 -7
7 5
8 0
9 -7
10 1
11 8
12 0
13 6
14 -7
15 7
16 -2
17 3
18 -6
19 10
20 -3
EOF